p tdp 100 99
10 81
28 52
35 48
40 85
22 80
89 29
30 71
11 90
53 75
48 62
4 100
7 30
45 32
43 39
79 72
19 87
46 33
69 74
37 60
49 5
55 20
33 12
42 58
19 27
93 26
42 90
14 38
12 42
32 72
19 48
10 66
12 23
68 16
6 77
40 44
30 27
89 25
2 37
37 22
10 34
99 67
98 59
94 95
16 73
34 88
31 1
47 78
63 54
3 91
36 18
97 66
96 51
42 57
72 64
65 83
82 21
8 39
51 78
55 74
24 43
49 15
94 28
89 38
68 13
54 23
12 86
84 36
35 52
4 3
9 26
82 23
15 18
61 65
43 74
72 81
75 37
100 50
56 76
14 59
47 92
76 39
87 73
65 70
31 29
9 41
9 70
77 99
44 66
36 89
16 100
92 9
68 2
54 30
3 10
17 61
91 93
6 31
39 1
74 68
